52	0

0	1	2
9	1	3
1	1	4
2	1	5
6	2	6	7
2	1	8
1	1	8
1	2	9	10
1	1	11
4	1	11
2	2	12	13
2	1	14
8	1	17
2	1	15
2	1	16
2	1	17
4	1	18
1	1	19
2	1	20
4	1	21
9	2	22	24
2	1	23
3	1	25
5	1	25
1	2	26	28
5	1	27
1	2	29	30
10	2	29	30
7	2	31	32
7	2	31	32
1	1	33
1	1	33
10	2	34	36
1	1	35
9	2	37	38
10	2	37	38
8	1	41
3	1	39
3	1	40
10	1	41
5	2	42	44
7	2	43	45
9	2	46	47
9	1	45
7	2	46	47
8	1	48
10	1	49
3	1	49
8	2	50	51
10	1	52
10	1	52
0	0
